110000000001000001000100011001000011101100010011111001000001100000110110111100001010001000000000000000001010010000001101100100010000001000000000111111001000100001110010000110000000001100010101011110111001011000000011000101011011101111010110000001111010101110110000001101010000000010001000101111010101010000000000011010100010000111100001110100000110001111011110101010101101000000000000010000010000100000110110111100001010001000000000000000001001001100001101110100010000001000000000111111001000100010110010010011100000001100010101011110111001011000000011000101011011101111010110000001111010101110110000001101010000000010101101110111101000110100000000011101010100100011000110111101110010101110100101000111010111011010100010100101011001000111000110000101100001110011011100111000001010000011000010110110010000100110101110010001100110101000110001010111011111101011010100001110010100000111111100100010100001011011000110100110100101101110111100100101000101101000010110010000000110000111001100111011001000100111001000110011101001000111111001001000011110101000100011001100010011110100010100010110011001111000111010101001111010010110010000001100001000000101001010001011110101011010011111000001011010110110110110010100011101101110111000001100110111100110011101110001100010100100000100001000011100110000001010010111010110010010001000000000000011100000010101010110011111110000000000001111010010000101001110101100000000100010001011011100010011110101000101